
Gurobi 12.0.1 (win64) logging started Fri Mar 14 12:45:29 2025

Set parameter LogFile to value "C:\Users\abombelli\OneDrive - Delft University of Technology\Desktop\TU_Delft\Papers\Luuk_Barbian_MSc\logs\full_L_65_subset15_restricted_seed42_SEQ1.log"
Gurobi Optimizer version 12.0.1 build v12.0.1rc0 (win64 - Windows 11.0 (22631.2))

CPU model: 13th Gen Intel(R) Core(TM) i7-1355U, instruction set [SSE2|AVX|AVX2]
Thread count: 10 physical cores, 12 logical processors, using up to 12 threads

Non-default parameters:
TimeLimit  3600
MIPGap  0.001

Optimize a model with 499348 rows, 127415 columns and 395409 nonzeros
Model fingerprint: 0x2435bcc1
Variable types: 0 continuous, 127415 integer (127245 binary)
Coefficient statistics:
  Matrix range     [4e-01, 5e+02]
  Objective range  [1e-02, 2e+05]
  Bounds range     [1e+00, 3e+00]
  RHS range        [1e+00, 3e+00]
Presolve removed 450763 rows and 64349 columns
Presolve time: 0.17s
Presolved: 48585 rows, 63066 columns, 263620 nonzeros
Variable types: 0 continuous, 63066 integer (63017 binary)
Found heuristic solution: objective 542597.56000
Found heuristic solution: objective 553317.56000
Performing another presolve...
Presolve removed 22932 rows and 22449 columns
Presolve time: 1.52s
Found heuristic solution: objective 554757.56000
Deterministic concurrent LP optimizer: primal and dual simplex
Showing primal log only...

Concurrent spin time: 0.00s

Solved with dual simplex

Root relaxation: objective 6.213861e+06, 12126 iterations, 0.61 seconds (0.66 work units)

    Nodes    |    Current Node    |     Objective Bounds      |     Work
 Expl Unexpl |  Obj  Depth IntInf | Incumbent    BestBd   Gap | It/Node Time

     0     0 6213860.79    0   99 554757.560 6213860.79  1020%     -    3s
H    0     0                    2364557.5600 6213860.79   163%     -    3s
H    0     0                    6175627.1500 6213860.79  0.62%     -    3s
H    0     0                    6192747.1500 6213860.79  0.34%     -    3s
H    0     0                    6197627.1500 6213860.79  0.26%     -    3s
H    0     0                    6199627.1500 6213860.79  0.23%     -    3s
H    0     0                    6206107.1500 6213860.79  0.12%     -    3s
H    0     0                    6206147.1500 6213860.79  0.12%     -    3s
H    0     0                    6206187.1500 6213860.79  0.12%     -    3s
H    0     0                    6206267.1500 6213860.79  0.12%     -    3s
H    0     0                    6206347.1500 6213860.79  0.12%     -    3s
H    0     0                    6206827.1500 6213860.79  0.11%     -    3s
H    0     0                    6208307.1500 6213860.79  0.09%     -    4s

Explored 1 nodes (15953 simplex iterations) in 4.12 seconds (2.48 work units)
Thread count was 12 (of 12 available processors)

Solution count 10: 6.20831e+06 6.20683e+06 6.20635e+06 ... 6.19275e+06

Optimal solution found (tolerance 1.00e-03)
Best objective 6.208307150000e+06, best bound 6.213860793537e+06, gap 0.0895%

Gurobi 12.0.1 (win64) logging started Fri Mar 14 14:06:50 2025

Set parameter LogFile to value "C:\Users\abombelli\OneDrive - Delft University of Technology\Desktop\TU_Delft\Papers\Luuk_Barbian_MSc\logs\full_L_65_subset15_restricted_seed42_SEQ1.log"
Gurobi Optimizer version 12.0.1 build v12.0.1rc0 (win64 - Windows 11.0 (22631.2))

CPU model: 13th Gen Intel(R) Core(TM) i7-1355U, instruction set [SSE2|AVX|AVX2]
Thread count: 10 physical cores, 12 logical processors, using up to 12 threads

Non-default parameters:
TimeLimit  3600
MIPGap  0.001

Optimize a model with 499352 rows, 127415 columns and 395413 nonzeros
Model fingerprint: 0xbd13b86b
Variable types: 0 continuous, 127415 integer (127245 binary)
Coefficient statistics:
  Matrix range     [4e-01, 5e+02]
  Objective range  [1e-02, 2e+05]
  Bounds range     [1e+00, 3e+00]
  RHS range        [1e+00, 3e+00]
Presolve removed 450816 rows and 64410 columns
Presolve time: 0.14s
Presolved: 48536 rows, 63005 columns, 263460 nonzeros
Variable types: 0 continuous, 63005 integer (62976 binary)
Found heuristic solution: objective 538671.16000
Found heuristic solution: objective 1209791.1600
Performing another presolve...
Presolve removed 22921 rows and 22430 columns
Presolve time: 2.00s
Deterministic concurrent LP optimizer: primal and dual simplex
Showing primal log only...

Concurrent spin time: 0.00s

Solved with dual simplex

Root relaxation: objective 6.205176e+06, 10677 iterations, 0.90 seconds (0.59 work units)

    Nodes    |    Current Node    |     Objective Bounds      |     Work
 Expl Unexpl |  Obj  Depth IntInf | Incumbent    BestBd   Gap | It/Node Time

     0     0 6205176.34    0  103 1209791.16 6205176.34   413%     -    4s
H    0     0                    3231591.1600 6205176.34  92.0%     -    4s
H    0     0                    6170271.1600 6205176.34  0.57%     -    4s
H    0     0                    6189951.1600 6205176.34  0.25%     -    4s
H    0     0                    6193511.1600 6205176.34  0.19%     -    4s
H    0     0                    6194031.1600 6205176.34  0.18%     -    4s
H    0     0                    6196911.1600 6205176.34  0.13%     -    4s
H    0     0                    6197231.1600 6205176.34  0.13%     -    4s
H    0     0                    6197271.1600 6205176.34  0.13%     -    5s
H    0     0                    6197711.1600 6205176.34  0.12%     -    5s
H    0     0                    6197831.1600 6205176.34  0.12%     -    5s
H    0     0                    6198351.1600 6205176.34  0.11%     -    5s
H    0     0                    6199311.1600 6205176.34  0.09%     -    5s

Explored 1 nodes (15022 simplex iterations) in 5.79 seconds (2.59 work units)
Thread count was 12 (of 12 available processors)

Solution count 10: 6.19931e+06 6.19835e+06 6.19783e+06 ... 6.18995e+06

Optimal solution found (tolerance 1.00e-03)
Best objective 6.199311160000e+06, best bound 6.205176339321e+06, gap 0.0946%

Gurobi 12.0.1 (win64) logging started Fri Mar 14 14:11:27 2025

Set parameter LogFile to value "C:\Users\abombelli\OneDrive - Delft University of Technology\Desktop\TU_Delft\Papers\Luuk_Barbian_MSc\logs\full_L_65_subset15_restricted_seed42_SEQ1.log"
Gurobi Optimizer version 12.0.1 build v12.0.1rc0 (win64 - Windows 11.0 (22631.2))

CPU model: 13th Gen Intel(R) Core(TM) i7-1355U, instruction set [SSE2|AVX|AVX2]
Thread count: 10 physical cores, 12 logical processors, using up to 12 threads

Non-default parameters:
TimeLimit  3600
MIPGap  0.001

Optimize a model with 499352 rows, 127415 columns and 395413 nonzeros
Model fingerprint: 0xbd13b86b
Variable types: 0 continuous, 127415 integer (127245 binary)
Coefficient statistics:
  Matrix range     [4e-01, 5e+02]
  Objective range  [1e-02, 2e+05]
  Bounds range     [1e+00, 3e+00]
  RHS range        [1e+00, 3e+00]
Presolve removed 450816 rows and 64410 columns
Presolve time: 0.29s
Presolved: 48536 rows, 63005 columns, 263460 nonzeros
Variable types: 0 continuous, 63005 integer (62976 binary)
Found heuristic solution: objective 538671.16000
Found heuristic solution: objective 1209791.1600
Performing another presolve...
Presolve removed 22921 rows and 22430 columns
Presolve time: 2.20s
Deterministic concurrent LP optimizer: primal and dual simplex
Showing primal log only...

Concurrent spin time: 0.00s

Solved with dual simplex

Root relaxation: objective 6.205176e+06, 10677 iterations, 0.95 seconds (0.59 work units)

    Nodes    |    Current Node    |     Objective Bounds      |     Work
 Expl Unexpl |  Obj  Depth IntInf | Incumbent    BestBd   Gap | It/Node Time

     0     0 6205176.34    0  103 1209791.16 6205176.34   413%     -    4s
H    0     0                    3231591.1600 6205176.34  92.0%     -    4s
H    0     0                    6170271.1600 6205176.34  0.57%     -    4s
H    0     0                    6189951.1600 6205176.34  0.25%     -    5s
H    0     0                    6193511.1600 6205176.34  0.19%     -    5s
H    0     0                    6194031.1600 6205176.34  0.18%     -    5s
H    0     0                    6196911.1600 6205176.34  0.13%     -    5s
H    0     0                    6197231.1600 6205176.34  0.13%     -    5s
H    0     0                    6197271.1600 6205176.34  0.13%     -    5s
H    0     0                    6197711.1600 6205176.34  0.12%     -    5s
H    0     0                    6197831.1600 6205176.34  0.12%     -    6s
H    0     0                    6198351.1600 6205176.34  0.11%     -    6s
H    0     0                    6199311.1600 6205176.34  0.09%     -    6s

Explored 1 nodes (15022 simplex iterations) in 7.14 seconds (2.59 work units)
Thread count was 12 (of 12 available processors)

Solution count 10: 6.19931e+06 6.19835e+06 6.19783e+06 ... 6.18995e+06

Optimal solution found (tolerance 1.00e-03)
Best objective 6.199311160000e+06, best bound 6.205176339321e+06, gap 0.0946%

Gurobi 12.0.1 (win64) logging started Fri Mar 14 15:47:54 2025

Set parameter LogFile to value "C:\Users\abombelli\OneDrive - Delft University of Technology\Desktop\TU_Delft\Papers\Luuk_Barbian_MSc\logs\full_L_65_subset15_restricted_seed42_SEQ1.log"
Gurobi Optimizer version 12.0.1 build v12.0.1rc0 (win64 - Windows 11.0 (22631.2))

CPU model: 13th Gen Intel(R) Core(TM) i7-1355U, instruction set [SSE2|AVX|AVX2]
Thread count: 10 physical cores, 12 logical processors, using up to 12 threads

Non-default parameters:
TimeLimit  3600
MIPGap  0.001

Optimize a model with 499352 rows, 127415 columns and 395413 nonzeros
Model fingerprint: 0xbd13b86b
Variable types: 0 continuous, 127415 integer (127245 binary)
Coefficient statistics:
  Matrix range     [4e-01, 5e+02]
  Objective range  [1e-02, 2e+05]
  Bounds range     [1e+00, 3e+00]
  RHS range        [1e+00, 3e+00]
Presolve removed 450816 rows and 64410 columns
Presolve time: 0.09s
Presolved: 48536 rows, 63005 columns, 263460 nonzeros
Variable types: 0 continuous, 63005 integer (62976 binary)
Found heuristic solution: objective 538671.16000
Found heuristic solution: objective 1209791.1600
Performing another presolve...
Presolve removed 22921 rows and 22430 columns
Presolve time: 1.03s
Deterministic concurrent LP optimizer: primal and dual simplex
Showing primal log only...

Concurrent spin time: 0.00s

Solved with dual simplex

Root relaxation: objective 6.205176e+06, 10677 iterations, 0.48 seconds (0.59 work units)

    Nodes    |    Current Node    |     Objective Bounds      |     Work
 Expl Unexpl |  Obj  Depth IntInf | Incumbent    BestBd   Gap | It/Node Time

     0     0 6205176.34    0  103 1209791.16 6205176.34   413%     -    2s
H    0     0                    3231591.1600 6205176.34  92.0%     -    2s
H    0     0                    6170271.1600 6205176.34  0.57%     -    2s
H    0     0                    6189951.1600 6205176.34  0.25%     -    2s
H    0     0                    6193511.1600 6205176.34  0.19%     -    2s
H    0     0                    6194031.1600 6205176.34  0.18%     -    2s
H    0     0                    6196911.1600 6205176.34  0.13%     -    2s
H    0     0                    6197231.1600 6205176.34  0.13%     -    2s
H    0     0                    6197271.1600 6205176.34  0.13%     -    2s
H    0     0                    6197711.1600 6205176.34  0.12%     -    2s
H    0     0                    6197831.1600 6205176.34  0.12%     -    2s
H    0     0                    6198351.1600 6205176.34  0.11%     -    3s
H    0     0                    6199311.1600 6205176.34  0.09%     -    3s

Explored 1 nodes (15022 simplex iterations) in 3.27 seconds (2.59 work units)
Thread count was 12 (of 12 available processors)

Solution count 10: 6.19931e+06 6.19835e+06 6.19783e+06 ... 6.18995e+06

Optimal solution found (tolerance 1.00e-03)
Best objective 6.199311160000e+06, best bound 6.205176339321e+06, gap 0.0946%

Gurobi 12.0.1 (win64) logging started Fri Mar 14 18:01:49 2025

Set parameter LogFile to value "C:\Users\abombelli\OneDrive - Delft University of Technology\Desktop\TU_Delft\Papers\Luuk_Barbian_MSc\logs\full_L_65_subset15_restricted_seed42_SEQ1.log"
Gurobi Optimizer version 12.0.1 build v12.0.1rc0 (win64 - Windows 11.0 (22631.2))

CPU model: 13th Gen Intel(R) Core(TM) i7-1355U, instruction set [SSE2|AVX|AVX2]
Thread count: 10 physical cores, 12 logical processors, using up to 12 threads

Non-default parameters:
TimeLimit  3600
MIPGap  0.001

Optimize a model with 499348 rows, 127415 columns and 395409 nonzeros
Model fingerprint: 0x2435bcc1
Variable types: 0 continuous, 127415 integer (127245 binary)
Coefficient statistics:
  Matrix range     [4e-01, 5e+02]
  Objective range  [1e-02, 2e+05]
  Bounds range     [1e+00, 3e+00]
  RHS range        [1e+00, 3e+00]
Presolve removed 450763 rows and 64349 columns
Presolve time: 0.09s
Presolved: 48585 rows, 63066 columns, 263620 nonzeros
Variable types: 0 continuous, 63066 integer (63017 binary)
Found heuristic solution: objective 542597.56000
Found heuristic solution: objective 553317.56000
Performing another presolve...
Presolve removed 22932 rows and 22449 columns
Presolve time: 0.86s
Found heuristic solution: objective 554757.56000
Deterministic concurrent LP optimizer: primal and dual simplex
Showing primal log only...

Concurrent spin time: 0.00s

Solved with dual simplex

Root relaxation: objective 6.213861e+06, 12126 iterations, 0.55 seconds (0.66 work units)

    Nodes    |    Current Node    |     Objective Bounds      |     Work
 Expl Unexpl |  Obj  Depth IntInf | Incumbent    BestBd   Gap | It/Node Time

     0     0 6213860.79    0   99 554757.560 6213860.79  1020%     -    2s
H    0     0                    2364557.5600 6213860.79   163%     -    2s
H    0     0                    6175627.1500 6213860.79  0.62%     -    2s
H    0     0                    6192747.1500 6213860.79  0.34%     -    2s
H    0     0                    6197627.1500 6213860.79  0.26%     -    2s
H    0     0                    6199627.1500 6213860.79  0.23%     -    2s
H    0     0                    6206107.1500 6213860.79  0.12%     -    2s
H    0     0                    6206147.1500 6213860.79  0.12%     -    2s
H    0     0                    6206187.1500 6213860.79  0.12%     -    2s
H    0     0                    6206267.1500 6213860.79  0.12%     -    2s
H    0     0                    6206347.1500 6213860.79  0.12%     -    2s
H    0     0                    6206827.1500 6213860.79  0.11%     -    2s
H    0     0                    6208307.1500 6213860.79  0.09%     -    2s

Explored 1 nodes (15953 simplex iterations) in 2.92 seconds (2.48 work units)
Thread count was 12 (of 12 available processors)

Solution count 10: 6.20831e+06 6.20683e+06 6.20635e+06 ... 6.19275e+06

Optimal solution found (tolerance 1.00e-03)
Best objective 6.208307150000e+06, best bound 6.213860793537e+06, gap 0.0895%
